NAME : LC1_6_6
TYPE : PDPTW
DIMENSION : 150
EDGE_WEIGHT_TYPE : EXACT_2D
NODE_COORD_SECTION
1 1 0
2 150 0
3 0 0
4 20 233
5 439 2
6 557 633
7 3 229
8 297 90
9 214 156
10 90 138
11 260 -30
12 440 0
13 -20 235
14 0 7
15 163 223
16 8 85
17 1090 90
18 105 230
19 90 0
20 111 30
21 0 166
22 -30 1122
23 0 12
24 526 799
25 13 143
26 138 90
27 173 233
28 90 457
29 24 20
30 0 132
31 -20 250
32 0 17
33 453 732
34 18 141
35 292 90
36 100 73
37 90 0
38 70 30
39 0 255
40 10 220
41 289 22
42 330 568
43 23 129
44 691 0
45 62 65
46 90 542
47 239 -20
48 174 0
49 -20 479
50 0 27
51 689 808
52 28 203
53 140 90
54 251 241
55 90 0
56 110 20
57 0 331
58 -10 110
59 0 32
60 730 1029
61 33 145
62 588 90
63 121 170
64 0 0
65 141 20
66 0 165
67 -20 293
68 0 37
69 637 833
70 38 122
71 590 90
72 119 267
73 90 413
74 113 -20
75 155 0
76 -20 662
77 0 42
78 116 138
79 43 157
80 1277 0
81 73 226
82 90 0
83 109 40
84 0 412
85 10 824
86 85 47
87 129 165
88 48 31
89 765 90
90 10 147
91 90 0
92 176 20
93 0 474
94 20 135
95 16 52
96 125 382
97 53 119
98 578 90
99 220 74
100 90 556
101 175 30
102 0 38
103 -10 539
104 0 57
105 135 330
106 58 61
107 514 90
108 140 143
109 90 0
110 125 30
111 0 476
112 20 38
113 238 62
114 780 886
115 63 103
116 360 90
117 71 154
118 90 215
119 27 -20
120 170 0
121 -10 824
122 0 67
123 476 659
124 68 108
125 340 90
126 86 230
127 90 0
128 221 -10
129 103 0
130 10 137
131 582 72
132 342 453
133 73 151
134 500 90
135 83 30
136 90 487
137 184 20
138 0 562
139 -20 51
140 0 77
141 538 662
142 78 263
143 641 90
144 259 59
145 90 0
146 26 -20
147 481 0
148 -10 1027
149 0 82
150 673 773
PICKUP_AND_DELIVERY_SECTION
1 0 0 0 0 0 0
2 0 0 0 0 1496 0
3 0 0 0 0 0 17
4 0 0 0 0 90 90
5 0 0 0 0 254 254
6 0 0 0 0 42 42
7 0 0 0 0 10 10
8 0 0 0 0 133 0
9 0 0 0 0 618 618
10 0 0 0 0 5 0
11 0 0 0 0 503 503
12 0 0 0 0 29 29
13 0 0 0 0 90 90
14 0 0 0 0 277 277
15 0 0 0 0 0 0
16 0 0 0 0 -10 -10
17 0 0 0 0 0 0
18 0 0 0 0 91 91
19 0 0 0 0 10 10
20 0 0 0 0 269 269
21 0 0 0 0 65 65
22 0 0 0 0 90 90
23 0 0 0 0 233 233
24 0 0 0 0 44 44
25 0 0 0 0 20 20
26 0 0 0 0 76 0
27 0 0 0 0 565 565
28 0 0 0 0 15 0
29 0 0 0 0 583 583
30 0 0 0 0 277 277
31 0 0 0 0 90 90
32 0 0 0 0 105 105
33 0 0 0 0 376 376
34 0 0 0 0 -20 -20
35 0 0 0 0 0 0
36 0 0 0 0 141 141
37 0 0 0 0 20 20
38 0 0 0 0 319 319
39 0 0 0 0 161 161
40 0 0 0 0 90 90
41 0 0 0 0 280 280
42 0 0 0 0 0 0
43 0 0 0 0 20 20
44 0 0 0 0 623 0
45 0 0 0 0 801 801
46 0 0 0 0 25 0
47 0 0 0 0 705 705
48 0 0 0 0 9 9
49 0 0 0 0 90 90
50 0 0 0 0 228 228
51 0 0 0 0 142 142
52 0 0 0 0 20 20
53 0 0 0 0 501 0
54 0 0 0 0 135 135
55 0 0 0 0 30 30
56 0 0 0 0 519 519
57 0 0 0 0 106 106
58 0 0 0 0 90 90
59 0 0 0 0 102 102
60 0 0 0 0 0 0
61 0 0 0 0 -10 -10
62 0 0 0 0 0 0
63 0 0 0 0 492 492
64 0 0 0 0 35 35
65 0 0 0 0 559 559
66 0 0 0 0 167 167
67 0 0 0 0 90 90
68 0 0 0 0 229 229
69 0 0 0 0 96 96
70 0 0 0 0 -30 -30
71 0 0 0 0 0 0
72 0 0 0 0 590 590
73 0 0 0 0 40 0
74 0 0 0 0 833 833
75 0 0 0 0 257 257
76 0 0 0 0 90 90
77 0 0 0 0 266 266
78 0 0 0 0 0 0
79 0 0 0 0 20 20
80 0 0 0 0 612 0
81 0 0 0 0 184 184
82 0 0 0 0 45 45
83 0 0 0 0 387 387
84 0 0 0 0 12 12
85 0 0 0 0 90 90
86 0 0 0 0 126 126
87 0 0 0 0 0 0
88 0 0 0 0 -10 -10
89 0 0 0 0 0 0
90 0 0 0 0 313 313
91 0 0 0 0 50 50
92 0 0 0 0 414 414
93 0 0 0 0 277 277
94 0 0 0 0 90 90
95 0 0 0 0 232 232
96 0 0 0 0 0 0
97 0 0 0 0 20 20
98 0 0 0 0 270 0
99 0 0 0 0 786 786
100 0 0 0 0 55 0
101 0 0 0 0 504 504
102 0 0 0 0 144 144
103 0 0 0 0 90 90
104 0 0 0 0 285 285
105 0 0 0 0 0 0
106 0 0 0 0 40 40
107 0 0 0 0 436 0
108 0 0 0 0 12 12
109 0 0 0 0 60 60
110 0 0 0 0 356 356
111 0 0 0 0 114 114
112 0 0 0 0 90 90
113 0 0 0 0 80 80
114 0 0 0 0 572 572
115 0 0 0 0 20 20
116 0 0 0 0 265 0
117 0 0 0 0 868 868
118 0 0 0 0 65 0
119 0 0 0 0 446 446
120 0 0 0 0 67 67
121 0 0 0 0 90 90
122 0 0 0 0 132 132
123 0 0 0 0 0 0
124 0 0 0 0 10 10
125 0 0 0 0 332 0
126 0 0 0 0 104 104
127 0 0 0 0 70 70
128 0 0 0 0 1124 1124
129 0 0 0 0 116 116
130 0 0 0 0 90 90
131 0 0 0 0 28 28
132 0 0 0 0 370 370
133 0 0 0 0 20 20
134 0 0 0 0 583 0
135 0 0 0 0 473 473
136 0 0 0 0 75 0
137 0 0 0 0 320 320
138 0 0 0 0 141 141
139 0 0 0 0 90 90
140 0 0 0 0 156 156
141 0 0 0 0 348 348
142 0 0 0 0 -10 -10
143 0 0 0 0 0 0
144 0 0 0 0 502 502
145 0 0 0 0 80 80
146 0 0 0 0 1053 1053
147 0 0 0 0 59 59
148 0 0 0 0 90 90
149 0 0 0 0 4 4
150 0 0 0 0 494 494
DEPOT_SECTION
1 
-1
EOF
